c strEdges: 125  randomEdges: 504 
c degrees:  1  2 
c girth: Inf max: -43.604516  
c Hgirth mixed MAXCUT instance
c generated from an undirected graph
c to solve unweighted MaxCut
p cnf 140 1258
45 28 0
-45 -28 0
112 117 0
-112 -117 0
112 74 0
-112 -74 0
136 137 0
-136 -137 0
136 120 0
-136 -120 0
57 72 0
-57 -72 0
86 36 0
-86 -36 0
86 7 0
-86 -7 0
87 55 0
-87 -55 0
87 97 0
-87 -97 0
4 100 0
-4 -100 0
4 96 0
-4 -96 0
84 116 0
-84 -116 0
84 81 0
-84 -81 0
51 76 0
-51 -76 0
51 62 0
-51 -62 0
47 64 0
-47 -64 0
47 72 0
-47 -72 0
10 99 0
-10 -99 0
18 129 0
-18 -129 0
108 59 0
-108 -59 0
108 55 0
-108 -55 0
118 109 0
-118 -109 0
118 79 0
-118 -79 0
77 5 0
-77 -5 0
77 89 0
-77 -89 0
123 21 0
-123 -21 0
123 98 0
-123 -98 0
111 103 0
-111 -103 0
111 69 0
-111 -69 0
119 62 0
-119 -62 0
119 64 0
-119 -64 0
127 37 0
-127 -37 0
127 99 0
-127 -99 0
50 27 0
-50 -27 0
42 98 0
-42 -98 0
42 31 0
-42 -31 0
26 81 0
-26 -81 0
131 89 0
-131 -89 0
131 48 0
-131 -48 0
82 30 0
-82 -30 0
101 8 0
-101 -8 0
104 7 0
-104 -7 0
104 12 0
-104 -12 0
140 105 0
-140 -105 0
140 20 0
-140 -20 0
2 92 0
-2 -92 0
2 85 0
-2 -85 0
126 74 0
-126 -74 0
126 38 0
-126 -38 0
114 95 0
-114 -95 0
114 116 0
-114 -116 0
39 48 0
-39 -48 0
39 100 0
-39 -100 0
73 85 0
-73 -85 0
32 91 0
-32 -91 0
32 41 0
-32 -41 0
13 67 0
-13 -67 0
13 138 0
-13 -138 0
122 83 0
-122 -83 0
122 105 0
-122 -105 0
107 60 0
-107 -60 0
107 61 0
-107 -61 0
34 106 0
-34 -106 0
34 129 0
-34 -129 0
46 53 0
-46 -53 0
46 121 0
-46 -121 0
63 19 0
-63 -19 0
75 71 0
-75 -71 0
75 115 0
-75 -115 0
88 61 0
-88 -61 0
88 67 0
-88 -67 0
14 54 0
-14 -54 0
14 15 0
-14 -15 0
29 20 0
-29 -20 0
29 102 0
-29 -102 0
49 56 0
-49 -56 0
130 102 0
-130 -102 0
130 71 0
-130 -71 0
68 96 0
-68 -96 0
68 28 0
-68 -28 0
135 93 0
-135 -93 0
135 40 0
-135 -40 0
90 40 0
-90 -40 0
90 19 0
-90 -19 0
70 38 0
-70 -38 0
70 35 0
-70 -35 0
80 110 0
-80 -110 0
80 53 0
-80 -53 0
58 41 0
-58 -41 0
6 138 0
-6 -138 0
6 54 0
-6 -54 0
3 66 0
-3 -66 0
3 128 0
-3 -128 0
17 128 0
-17 -128 0
17 60 0
-17 -60 0
1 121 0
-1 -121 0
1 43 0
-1 -43 0
134 69 0
-134 -69 0
134 24 0
-134 -24 0
113 132 0
-113 -132 0
113 5 0
-113 -5 0
52 25 0
-52 -25 0
52 36 0
-52 -36 0
139 23 0
-139 -23 0
22 15 0
-22 -15 0
22 56 0
-22 -56 0
33 97 0
-33 -97 0
33 23 0
-33 -23 0
124 115 0
-124 -115 0
44 120 0
-44 -120 0
44 30 0
-44 -30 0
9 79 0
-9 -79 0
9 132 0
-9 -132 0
65 31 0
-65 -31 0
133 35 0
-133 -35 0
133 106 0
-133 -106 0
78 24 0
-78 -24 0
78 137 0
-78 -137 0
16 12 0
-16 -12 0
16 83 0
-16 -83 0
125 94 0
-125 -94 0
125 27 0
-125 -27 0
11 43 0
-11 -43 0
11 91 0
-11 -91 0
103 38 0
-103 -38 0
42 43 0
-42 -43 0
86 2 0
-86 -2 0
27 38 0
-27 -38 0
14 49 0
-14 -49 0
52 72 0
-52 -72 0
64 48 0
-64 -48 0
51 127 0
-51 -127 0
108 93 0
-108 -93 0
63 29 0
-63 -29 0
107 23 0
-107 -23 0
65 41 0
-65 -41 0
47 116 0
-47 -116 0
5 120 0
-5 -120 0
104 17 0
-104 -17 0
56 79 0
-56 -79 0
71 23 0
-71 -23 0
14 76 0
-14 -76 0
47 91 0
-47 -91 0
135 102 0
-135 -102 0
13 17 0
-13 -17 0
140 8 0
-140 -8 0
4 50 0
-4 -50 0
8 93 0
-8 -93 0
131 2 0
-131 -2 0
13 120 0
-13 -120 0
113 74 0
-113 -74 0
103 106 0
-103 -106 0
57 75 0
-57 -75 0
86 97 0
-86 -97 0
29 130 0
-29 -130 0
124 9 0
-124 -9 0
124 72 0
-124 -72 0
114 139 0
-114 -139 0
84 129 0
-84 -129 0
67 110 0
-67 -110 0
81 93 0
-81 -93 0
58 102 0
-58 -102 0
106 20 0
-106 -20 0
127 9 0
-127 -9 0
11 53 0
-11 -53 0
11 79 0
-11 -79 0
26 60 0
-26 -60 0
100 15 0
-100 -15 0
111 106 0
-111 -106 0
64 35 0
-64 -35 0
1 91 0
-1 -91 0
98 69 0
-98 -69 0
88 90 0
-88 -90 0
126 54 0
-126 -54 0
82 115 0
-82 -115 0
73 96 0
-73 -96 0
133 21 0
-133 -21 0
134 56 0
-134 -56 0
73 100 0
-73 -100 0
20 93 0
-20 -93 0
68 92 0
-68 -92 0
42 137 0
-42 -137 0
137 7 0
-137 -7 0
98 66 0
-98 -66 0
26 106 0
-26 -106 0
59 67 0
-59 -67 0
133 98 0
-133 -98 0
50 36 0
-50 -36 0
34 117 0
-34 -117 0
118 95 0
-118 -95 0
33 27 0
-33 -27 0
60 25 0
-60 -25 0
85 35 0
-85 -35 0
22 103 0
-22 -103 0
63 15 0
-63 -15 0
54 20 0
-54 -20 0
65 12 0
-65 -12 0
135 120 0
-135 -120 0
81 96 0
-81 -96 0
75 16 0
-75 -16 0
82 106 0
-82 -106 0
2 43 0
-2 -43 0
107 113 0
-107 -113 0
140 7 0
-140 -7 0
81 92 0
-81 -92 0
3 109 0
-3 -109 0
4 117 0
-4 -117 0
118 75 0
-118 -75 0
46 83 0
-46 -83 0
2 98 0
-2 -98 0
86 35 0
-86 -35 0
56 43 0
-56 -43 0
135 116 0
-135 -116 0
125 60 0
-125 -60 0
128 43 0
-128 -43 0
99 83 0
-99 -83 0
72 97 0
-72 -97 0
51 70 0
-51 -70 0
133 41 0
-133 -41 0
131 101 0
-131 -101 0
87 70 0
-87 -70 0
68 81 0
-68 -81 0
129 41 0
-129 -41 0
125 138 0
-125 -138 0
65 21 0
-65 -21 0
136 33 0
-136 -33 0
73 80 0
-73 -80 0
29 79 0
-29 -79 0
84 61 0
-84 -61 0
36 60 0
-36 -60 0
123 82 0
-123 -82 0
64 62 0
-64 -62 0
55 138 0
-55 -138 0
58 99 0
-58 -99 0
51 119 0
-51 -119 0
64 21 0
-64 -21 0
116 54 0
-116 -54 0
59 25 0
-59 -25 0
33 95 0
-33 -95 0
89 132 0
-89 -132 0
98 35 0
-98 -35 0
105 67 0
-105 -67 0
62 67 0
-62 -67 0
44 94 0
-44 -94 0
84 17 0
-84 -17 0
49 22 0
-49 -22 0
126 85 0
-126 -85 0
28 30 0
-28 -30 0
61 43 0
-61 -43 0
61 23 0
-61 -23 0
114 29 0
-114 -29 0
95 61 0
-95 -61 0
49 130 0
-49 -130 0
107 91 0
-107 -91 0
85 71 0
-85 -71 0
123 29 0
-123 -29 0
131 70 0
-131 -70 0
4 114 0
-4 -114 0
135 41 0
-135 -41 0
45 74 0
-45 -74 0
86 31 0
-86 -31 0
80 121 0
-80 -121 0
2 37 0
-2 -37 0
4 26 0
-4 -26 0
136 83 0
-136 -83 0
98 94 0
-98 -94 0
72 56 0
-72 -56 0
1 71 0
-1 -71 0
112 101 0
-112 -101 0
18 62 0
-18 -62 0
29 64 0
-29 -64 0
49 30 0
-49 -30 0
98 20 0
-98 -20 0
131 37 0
-131 -37 0
136 68 0
-136 -68 0
108 124 0
-108 -124 0
77 102 0
-77 -102 0
17 11 0
-17 -11 0
32 120 0
-32 -120 0
83 66 0
-83 -66 0
127 48 0
-127 -48 0
47 131 0
-47 -131 0
46 90 0
-46 -90 0
30 40 0
-30 -40 0
80 115 0
-80 -115 0
30 67 0
-30 -67 0
32 130 0
-32 -130 0
3 15 0
-3 -15 0
6 120 0
-6 -120 0
49 55 0
-49 -55 0
26 9 0
-26 -9 0
113 16 0
-113 -16 0
39 1 0
-39 -1 0
34 124 0
-34 -124 0
27 102 0
-27 -102 0
137 55 0
-137 -55 0
116 79 0
-116 -79 0
45 47 0
-45 -47 0
82 59 0
-82 -59 0
104 67 0
-104 -67 0
1 33 0
-1 -33 0
18 135 0
-18 -135 0
64 81 0
-64 -81 0
104 129 0
-104 -129 0
90 59 0
-90 -59 0
134 103 0
-134 -103 0
138 94 0
-138 -94 0
114 22 0
-114 -22 0
140 69 0
-140 -69 0
34 110 0
-34 -110 0
118 55 0
-118 -55 0
104 103 0
-104 -103 0
127 139 0
-127 -139 0
91 54 0
-91 -54 0
4 91 0
-4 -91 0
101 15 0
-101 -15 0
2 95 0
-2 -95 0
39 9 0
-39 -9 0
136 50 0
-136 -50 0
99 89 0
-99 -89 0
96 93 0
-96 -93 0
39 124 0
-39 -124 0
14 100 0
-14 -100 0
44 128 0
-44 -128 0
129 69 0
-129 -69 0
125 19 0
-125 -19 0
130 65 0
-130 -65 0
105 54 0
-105 -54 0
46 81 0
-46 -81 0
62 121 0
-62 -121 0
130 70 0
-130 -70 0
76 38 0
-76 -38 0
70 106 0
-70 -106 0
81 48 0
-81 -48 0
113 133 0
-113 -133 0
60 61 0
-60 -61 0
135 56 0
-135 -56 0
3 97 0
-3 -97 0
135 59 0
-135 -59 0
58 91 0
-58 -91 0
44 8 0
-44 -8 0
29 71 0
-29 -71 0
88 49 0
-88 -49 0
63 68 0
-63 -68 0
33 96 0
-33 -96 0
5 74 0
-5 -74 0
137 103 0
-137 -103 0
106 61 0
-106 -61 0
45 78 0
-45 -78 0
129 71 0
-129 -71 0
16 25 0
-16 -25 0
75 116 0
-75 -116 0
3 139 0
-3 -139 0
44 24 0
-44 -24 0
22 115 0
-22 -115 0
62 19 0
-62 -19 0
140 106 0
-140 -106 0
18 55 0
-18 -55 0
40 121 0
-40 -121 0
55 81 0
-55 -81 0
4 59 0
-4 -59 0
77 2 0
-77 -2 0
26 69 0
-26 -69 0
126 63 0
-126 -63 0
3 40 0
-3 -40 0
108 70 0
-108 -70 0
75 9 0
-75 -9 0
78 5 0
-78 -5 0
88 9 0
-88 -9 0
119 22 0
-119 -22 0
111 15 0
-111 -15 0
97 115 0
-97 -115 0
36 54 0
-36 -54 0
26 19 0
-26 -19 0
42 30 0
-42 -30 0
127 88 0
-127 -88 0
84 48 0
-84 -48 0
114 46 0
-114 -46 0
136 84 0
-136 -84 0
64 105 0
-64 -105 0
88 6 0
-88 -6 0
137 27 0
-137 -27 0
9 5 0
-9 -5 0
51 3 0
-51 -3 0
119 21 0
-119 -21 0
67 15 0
-67 -15 0
135 113 0
-135 -113 0
83 132 0
-83 -132 0
63 124 0
-63 -124 0
116 128 0
-116 -128 0
77 127 0
-77 -127 0
29 68 0
-29 -68 0
73 59 0
-73 -59 0
26 32 0
-26 -32 0
134 61 0
-134 -61 0
33 116 0
-33 -116 0
111 12 0
-111 -12 0
109 69 0
-109 -69 0
64 79 0
-64 -79 0
18 5 0
-18 -5 0
22 40 0
-22 -40 0
109 60 0
-109 -60 0
113 27 0
-113 -27 0
87 37 0
-87 -37 0
84 3 0
-84 -3 0
92 106 0
-92 -106 0
127 70 0
-127 -70 0
58 12 0
-58 -12 0
87 42 0
-87 -42 0
84 16 0
-84 -16 0
21 83 0
-21 -83 0
2 102 0
-2 -102 0
98 24 0
-98 -24 0
60 20 0
-60 -20 0
80 3 0
-80 -3 0
77 39 0
-77 -39 0
84 79 0
-84 -79 0
117 105 0
-117 -105 0
50 26 0
-50 -26 0
57 132 0
-57 -132 0
70 54 0
-70 -54 0
86 47 0
-86 -47 0
131 62 0
-131 -62 0
90 105 0
-90 -105 0
127 19 0
-127 -19 0
72 7 0
-72 -7 0
67 61 0
-67 -61 0
125 41 0
-125 -41 0
88 54 0
-88 -54 0
22 89 0
-22 -89 0
1 105 0
-1 -105 0
36 71 0
-36 -71 0
51 14 0
-51 -14 0
92 121 0
-92 -121 0
14 102 0
-14 -102 0
52 19 0
-52 -19 0
50 67 0
-50 -67 0
140 11 0
-140 -11 0
44 79 0
-44 -79 0
112 6 0
-112 -6 0
57 10 0
-57 -10 0
6 56 0
-6 -56 0
45 79 0
-45 -79 0
123 119 0
-123 -119 0
129 53 0
-129 -53 0
104 61 0
-104 -61 0
111 102 0
-111 -102 0
52 31 0
-52 -31 0
63 117 0
-63 -117 0
45 87 0
-45 -87 0
18 114 0
-18 -114 0
129 96 0
-129 -96 0
10 48 0
-10 -48 0
57 38 0
-57 -38 0
116 41 0
-116 -41 0
58 27 0
-58 -27 0
138 23 0
-138 -23 0
137 48 0
-137 -48 0
86 25 0
-86 -25 0
6 16 0
-6 -16 0
50 138 0
-50 -138 0
100 103 0
-100 -103 0
96 79 0
-96 -79 0
114 133 0
-114 -133 0
84 85 0
-84 -85 0
6 96 0
-6 -96 0
2 55 0
-2 -55 0
133 19 0
-133 -19 0
38 43 0
-38 -43 0
9 56 0
-9 -56 0
10 113 0
-10 -113 0
77 65 0
-77 -65 0
113 41 0
-113 -41 0
140 91 0
-140 -91 0
135 27 0
-135 -27 0
119 66 0
-119 -66 0
91 15 0
-91 -15 0
5 115 0
-5 -115 0
82 93 0
-82 -93 0
13 96 0
-13 -96 0
18 41 0
-18 -41 0
45 124 0
-45 -124 0
134 110 0
-134 -110 0
89 69 0
-89 -69 0
123 23 0
-123 -23 0
28 59 0
-28 -59 0
118 14 0
-118 -14 0
80 31 0
-80 -31 0
88 137 0
-88 -137 0
45 9 0
-45 -9 0
51 128 0
-51 -128 0
36 132 0
-36 -132 0
106 128 0
-106 -128 0
83 138 0
-83 -138 0
17 37 0
-17 -37 0
17 121 0
-17 -121 0
28 115 0
-28 -115 0
115 94 0
-115 -94 0
86 140 0
-86 -140 0
129 115 0
-129 -115 0
133 38 0
-133 -38 0
126 32 0
-126 -32 0
40 35 0
-40 -35 0
71 120 0
-71 -120 0
104 128 0
-104 -128 0
17 35 0
-17 -35 0
129 23 0
-129 -23 0
122 129 0
-122 -129 0
104 64 0
-104 -64 0
39 55 0
-39 -55 0
136 41 0
-136 -41 0
84 109 0
-84 -109 0
33 41 0
-33 -41 0
81 61 0
-81 -61 0
46 12 0
-46 -12 0
36 27 0
-36 -27 0
86 109 0
-86 -109 0
55 21 0
-55 -21 0
85 40 0
-85 -40 0
108 115 0
-108 -115 0
11 106 0
-11 -106 0
101 135 0
-101 -135 0
113 125 0
-113 -125 0
75 81 0
-75 -81 0
133 129 0
-133 -129 0
70 25 0
-70 -25 0
107 96 0
-107 -96 0
112 30 0
-112 -30 0
86 138 0
-86 -138 0
87 46 0
-87 -46 0
86 77 0
-86 -77 0
52 43 0
-52 -43 0
114 53 0
-114 -53 0
120 12 0
-120 -12 0
124 41 0
-124 -41 0
88 83 0
-88 -83 0
122 31 0
-122 -31 0
58 15 0
-58 -15 0
54 25 0
-54 -25 0
84 24 0
-84 -24 0
42 32 0
-42 -32 0
50 125 0
-50 -125 0
18 69 0
-18 -69 0
55 91 0
-55 -91 0
87 36 0
-87 -36 0
18 94 0
-18 -94 0
88 138 0
-88 -138 0
87 34 0
-87 -34 0
72 115 0
-72 -115 0
119 1 0
-119 -1 0
50 23 0
-50 -23 0
76 99 0
-76 -99 0
39 13 0
-39 -13 0
3 96 0
-3 -96 0
78 129 0
-78 -129 0
28 12 0
-28 -12 0
112 140 0
-112 -140 0
114 110 0
-114 -110 0
76 95 0
-76 -95 0
47 121 0
-47 -121 0
18 130 0
-18 -130 0
21 79 0
-21 -79 0
26 23 0
-26 -23 0
134 67 0
-134 -67 0
119 128 0
-119 -128 0
78 102 0
-78 -102 0
49 106 0
-49 -106 0
68 79 0
-68 -79 0
63 27 0
-63 -27 0
49 25 0
-49 -25 0
5 93 0
-5 -93 0
55 24 0
-55 -24 0
78 28 0
-78 -28 0
126 20 0
-126 -20 0
16 99 0
-16 -99 0
127 63 0
-127 -63 0
100 99 0
-100 -99 0
57 2 0
-57 -2 0
70 58 0
-70 -58 0
113 115 0
-113 -115 0
68 115 0
-68 -115 0
4 126 0
-4 -126 0
56 41 0
-56 -41 0
44 98 0
-44 -98 0
114 44 0
-114 -44 0
14 135 0
-14 -135 0
133 132 0
-133 -132 0
72 92 0
-72 -92 0
104 85 0
-104 -85 0
99 15 0
-99 -15 0
123 1 0
-123 -1 0
90 6 0
-90 -6 0
127 66 0
-127 -66 0
18 91 0
-18 -91 0
57 18 0
-57 -18 0
119 96 0
-119 -96 0
119 6 0
-119 -6 0
28 48 0
-28 -48 0
11 48 0
-11 -48 0
57 84 0
-57 -84 0
39 94 0
-39 -94 0
99 54 0
-99 -54 0
140 67 0
-140 -67 0
57 5 0
-57 -5 0
77 75 0
-77 -75 0
50 34 0
-50 -34 0
57 140 0
-57 -140 0
18 29 0
-18 -29 0
123 15 0
-123 -15 0
9 95 0
-9 -95 0
64 132 0
-64 -132 0
124 67 0
-124 -67 0
7 83 0
-7 -83 0
95 19 0
-95 -19 0
111 107 0
-111 -107 0
9 59 0
-9 -59 0
76 132 0
-76 -132 0
103 66 0
-103 -66 0
111 25 0
-111 -25 0
123 88 0
-123 -88 0
68 106 0
-68 -106 0
10 70 0
-10 -70 0
3 138 0
-3 -138 0
10 105 0
-10 -105 0
78 35 0
-78 -35 0
82 61 0
-82 -61 0
126 115 0
-126 -115 0
4 99 0
-4 -99 0
